data;


param d:= 100;
param r:=5;
param p:=0.720000;
param M:=1000;
param U:=
         1         1        2.546997e-01
         2         1       -3.500594e-01
         3         1        6.944503e-01
         4         1        2.050294e+00
         5         1       -4.496083e-01
         6         1       -3.017974e-01
         7         1        3.412930e-01
         8         1       -1.609462e-01
         9         1        1.581824e+00
        10         1       -8.482874e-01
        11         1       -6.079092e-01
        12         1       -8.196508e-01
        13         1       -7.958036e-01
        14         1        8.789220e-02
        15         1       -2.476262e+00
        16         1        1.416020e+00
        17         1       -3.020861e-01
        18         1        2.475624e-01
        19         1        1.438032e+00
        20         1        4.815773e-01
        21         1       -1.996453e-01
        22         1        5.974551e-01
        23         1       -1.001647e+00
        24         1        1.334615e-01
        25         1        1.452243e+00
        26         1       -1.482611e-01
        27         1       -1.760740e-01
        28         1        1.371625e+00
        29         1       -3.603608e-02
        30         1        9.418728e-01
        31         1        8.503631e-01
        32         1       -5.323355e-01
        33         1        1.257383e-02
        34         1        1.509416e+00
        35         1        1.000006e+00
        36         1       -1.735721e-05
        37         1        1.538093e+00
        38         1        2.412418e-01
        39         1        1.200159e+00
        40         1        2.047339e-01
        41         1        7.727729e-01
        42         1        1.749852e+00
        43         1       -1.784719e-01
        44         1       -1.883738e-01
        45         1       -2.307714e-01
        46         1        1.983606e+00
        47         1        4.721090e-01
        48         1        2.752445e-02
        49         1       -9.560580e-02
        50         1       -7.689103e-01
        51         1        6.393340e-01
        52         1       -6.200168e-01
        53         1        6.184578e-02
        54         1       -2.567035e-01
        55         1        7.462633e-01
        56         1        6.177300e-01
        57         1        6.783902e-01
        58         1        4.708837e-02
        59         1        2.223461e+00
        60         1       -4.672927e-01
        61         1       -1.411021e+00
        62         1        3.421420e-01
        63         1       -2.398360e-01
        64         1        6.216434e-01
        65         1       -1.857891e+00
        66         1        6.880030e-01
        67         1       -2.237706e+00
        68         1        1.367545e+00
        69         1       -1.618813e-01
        70         1        3.208563e-01
        71         1       -3.126422e-01
        72         1       -6.588546e-01
        73         1       -6.192635e-01
        74         1       -1.150585e+00
        75         1       -1.105538e+00
        76         1       -1.032508e+00
        77         1        6.022643e-01
        78         1        4.538369e-01
        79         1       -6.612179e-01
        80         1       -1.213516e+00
        81         1       -5.839694e-01
        82         1       -8.500433e-01
        83         1        2.092037e-01
        84         1       -3.985146e-01
        85         1       -1.205337e-01
        86         1       -1.214462e+00
        87         1       -1.710672e+00
        88         1        1.211338e+00
        89         1       -8.400097e-01
        90         1        7.786106e-01
        91         1       -1.971927e+00
        92         1       -4.574133e-01
        93         1       -7.779104e-01
        94         1       -3.456741e-01
        95         1       -6.754654e-01
        96         1       -1.999042e+00
        97         1       -8.619053e-01
        98         1       -4.344280e-02
        99         1        1.119469e+00
       100         1       -6.697627e-02
         1         2       -2.365077e+00
         2         2       -9.455658e-01
         3         2        2.274982e-01
         4         2        1.572068e-01
         5         2       -9.561098e-01
         6         2        2.405212e-02
         7         2       -5.044580e-01
         8         2        9.686945e-01
         9         2        2.651648e+00
        10         2       -1.283009e+00
        11         2        6.381854e-01
        12         2       -6.206565e-01
        13         2       -7.831244e-01
        14         2        1.058123e+00
        15         2       -2.415573e-01
        16         2       -4.780017e-01
        17         2       -3.219947e-01
        18         2        7.198524e-02
        19         2        4.594957e-01
        20         2       -2.541159e-01
        21         2       -5.824576e-01
        22         2        3.658115e-01
        23         2       -2.294988e-01
        24         2        6.989566e-01
        25         2       -6.245357e-01
        26         2        5.674773e-02
        27         2       -4.236728e-01
        28         2        7.282199e-03
        29         2        2.463566e-01
        30         2       -2.658792e-01
        31         2        2.956533e-01
        32         2       -2.817052e-03
        33         2        5.176396e-01
        34         2       -1.920069e+00
        35         2        6.139195e-01
        36         2       -3.235662e-01
        37         2       -2.922512e-01
        38         2       -1.733859e+00
        39         2       -3.986207e-01
        40         2       -1.466965e+00
        41         2       -1.567816e+00
        42         2       -9.889716e-01
        43         2        1.318303e-01
        44         2        1.845905e+00
        45         2        2.941590e-01
        46         2       -5.542407e-01
        47         2       -1.090179e+00
        48         2       -2.750699e-01
        49         2       -1.680062e+00
        50         2        1.696516e+00
        51         2       -1.598515e+00
        52         2        1.845806e+00
        53         2       -1.390496e+00
        54         2        1.087399e+00
        55         2       -8.264705e-01
        56         2        3.159504e-01
        57         2        9.287647e-01
        58         2       -1.187485e+00
        59         2        2.318671e-01
        60         2       -1.468217e+00
        61         2        5.051182e-01
        62         2        5.224488e-01
        63         2        2.771175e-01
        64         2       -8.266839e-01
        65         2       -9.231072e-01
        66         2        9.960140e-01
        67         2       -4.472692e-01
        68         2       -3.526383e-01
        69         2       -5.888670e-01
        70         2       -1.150938e+00
        71         2       -4.642394e-01
        72         2       -5.692254e-01
        73         2        1.032412e+00
        74         2        4.839422e-01
        75         2       -3.481854e-01
        76         2       -8.243323e-01
        77         2       -9.892098e-01
        78         2       -1.567098e+00
        79         2       -9.286253e-01
        80         2       -4.789339e-01
        81         2       -1.808046e+00
        82         2       -9.703031e-02
        83         2       -1.426260e+00
        84         2       -1.610057e-01
        85         2       -1.483334e+00
        86         2        2.504777e+00
        87         2        7.136767e-01
        88         2       -1.226661e+00
        89         2       -5.080702e-01
        90         2       -1.840852e-01
        91         2        1.148012e+00
        92         2        1.753818e+00
        93         2        1.736207e+00
        94         2       -2.008368e+00
        95         2        1.600413e+00
        96         2        6.994183e-03
        97         2        2.296971e-01
        98         2       -2.478161e+00
        99         2       -3.865243e-01
       100         2       -1.388655e+00
         1         3        1.352485e+00
         2         3        6.358051e-01
         3         3        2.436690e-01
         4         3        4.943507e-01
         5         3       -3.620174e-01
         6         3       -9.205447e-01
         7         3        8.915576e-01
         8         3       -2.027078e+00
         9         3        9.862494e-01
        10         3        9.567283e-01
        11         3        3.911172e-01
        12         3       -7.669550e-01
        13         3        4.653830e-01
        14         3        6.017238e-01
        15         3        1.098781e-01
        16         3        1.588156e+00
        17         3        5.374053e-01
        18         3       -1.902367e-01
        19         3        1.216311e+00
        20         3        1.359657e+00
        21         3        7.375456e-01
        22         3        3.121737e-01
        23         3       -2.154135e+00
        24         3        2.696107e+00
        25         3        5.100713e-01
        26         3       -2.128019e-02
        27         3       -1.443045e-01
        28         3       -1.772408e+00
        29         3        3.636066e-01
        30         3        1.327920e-01
        31         3        1.189333e+00
        32         3        3.095960e-01
        33         3        2.392546e-02
        34         3        5.810907e-01
        35         3       -2.800984e-01
        36         3        5.837038e-01
        37         3       -2.461740e-02
        38         3       -4.763995e-02
        39         3        3.604113e-01
        40         3       -4.794090e-01
        41         3       -7.982357e-01
        42         3        6.136757e-01
        43         3        1.013645e+00
        44         3        8.967381e-02
        45         3       -3.463862e-01
        46         3       -1.135110e-01
        47         3       -1.882776e+00
        48         3       -1.158841e+00
        49         3       -6.164432e-01
        50         3       -8.231655e-01
        51         3       -1.480740e+00
        52         3        8.880480e-01
        53         3       -8.555651e-02
        54         3       -3.382388e-01
        55         3       -4.396479e-01
        56         3        1.151627e+00
        57         3       -6.439335e-01
        58         3        4.458002e-01
        59         3       -1.257709e+00
        60         3        1.478222e-01
        61         3       -1.034482e+00
        62         3        1.365465e+00
        63         3        3.762888e-01
        64         3        6.798251e-01
        65         3       -6.956086e-02
        66         3        1.435423e+00
        67         3       -1.158362e+00
        68         3        6.471471e-01
        69         3       -1.130239e+00
        70         3        1.876266e+00
        71         3       -1.242312e+00
        72         3        9.272675e-01
        73         3        1.165136e+00
        74         3       -1.738842e+00
        75         3        3.224620e-01
        76         3       -1.757932e+00
        77         3        9.605096e-01
        78         3       -4.627286e-01
        79         3       -7.580070e-01
        80         3       -5.534162e-02
        81         3       -6.061501e-02
        82         3       -1.793243e+00
        83         3        3.990616e-01
        84         3       -5.675420e-01
        85         3        5.019749e-01
        86         3       -6.866360e-02
        87         3       -8.148237e-01
        88         3       -9.221449e-01
        89         3       -5.214632e-01
        90         3        1.122204e+00
        91         3        9.306085e-01
        92         3        1.383286e+00
        93         3        6.188811e-01
        94         3        5.399939e-01
        95         3        5.605771e-01
        96         3        6.849643e-03
        97         3       -2.434655e-01
        98         3       -3.101459e-01
        99         3        5.112989e-01
       100         3        2.645741e-01
         1         4       -2.132258e+00
         2         4        1.311090e-01
         3         4       -1.675000e+00
         4         4       -4.404210e-01
         5         4        1.867357e+00
         6         4       -5.641817e-01
         7         4        3.674691e-01
         8         4        1.219514e+00
         9         4       -7.294603e-01
        10         4        3.174352e-01
        11         4       -1.131155e+00
        12         4       -7.535933e-01
        13         4        1.122054e+00
        14         4        1.700194e+00
        15         4       -1.105085e-01
        16         4        8.259109e-01
        17         4       -4.521456e-01
        18         4        8.646335e-01
        19         4       -5.962845e-01
        20         4       -5.113883e-01
        21         4        1.666285e+00
        22         4        8.382223e-01
        23         4       -2.523206e+00
        24         4        8.202452e-01
        25         4       -1.063113e+00
        26         4        1.022166e+00
        27         4       -3.531042e-01
        28         4        2.182827e-01
        29         4        5.146340e-01
        30         4        2.324390e+00
        31         4       -5.575787e-01
        32         4        2.502890e-03
        33         4        1.342833e+00
        34         4       -2.117380e-01
        35         4       -1.080262e+00
        36         4       -1.240874e-01
        37         4       -6.467989e-01
        38         4        1.277559e+00
        39         4       -4.953652e-01
        40         4        1.636887e+00
        41         4       -2.662136e-02
        42         4        1.082012e+00
        43         4       -1.956673e+00
        44         4       -1.183135e+00
        45         4        4.245519e-01
        46         4       -1.130694e+00
        47         4       -6.437469e-01
        48         4       -9.932799e-01
        49         4        3.685672e-01
        50         4        1.734649e+00
        51         4        1.243160e+00
        52         4        2.219033e+00
        53         4        2.890571e-01
        54         4        6.927611e-01
        55         4        1.534189e+00
        56         4        2.533249e+00
        57         4       -1.384778e+00
        58         4        1.196581e+00
        59         4        4.654294e-01
        60         4       -5.168049e-01
        61         4        3.258046e-01
        62         4        6.815102e-01
        63         4        3.227196e-01
        64         4       -1.394569e+00
        65         4        1.124843e+00
        66         4       -2.888489e-01
        67         4        3.446546e-01
        68         4       -5.200275e-02
        69         4       -1.264592e+00
        70         4        9.479208e-01
        71         4        1.268211e-02
        72         4        2.163301e-01
        73         4        2.818711e+00
        74         4       -5.794726e-01
        75         4        7.247634e-01
        76         4       -5.240234e-01
        77         4        4.218386e-01
        78         4        3.363717e-01
        79         4       -1.769585e+00
        80         4       -3.393995e-01
        81         4       -1.371464e-01
        82         4        6.006170e-01
        83         4        2.106413e+00
        84         4        4.022579e-01
        85         4        2.533037e+00
        86         4       -1.196126e+00
        87         4       -4.534590e-01
        88         4        3.692220e-01
        89         4       -8.354276e-02
        90         4        6.597012e-01
        91         4        2.203189e-01
        92         4       -2.587652e-01
        93         4        8.095812e-01
        94         4        4.097981e-02
        95         4        1.454406e+00
        96         4        1.002230e+00
        97         4        6.684124e-02
        98         4       -1.185803e+00
        99         4       -2.310079e-01
       100         4        2.962361e-01
         1         5       -9.981472e-01
         2         5       -6.330368e-01
         3         5       -1.775300e+00
         4         5        1.263293e+00
         5         5        9.655890e-01
         6         5       -2.655080e-01
         7         5        1.029755e+00
         8         5       -9.498527e-01
         9         5        7.475513e-01
        10         5        7.800884e-01
        11         5       -9.295630e-01
        12         5        1.203673e+00
        13         5       -9.519475e-01
        14         5        2.796833e-01
        15         5       -8.886351e-01
        16         5       -1.849502e-01
        17         5       -9.446160e-01
        18         5        2.642890e+00
        19         5        1.382118e-01
        20         5       -1.384604e-02
        21         5       -8.043422e-01
        22         5        5.569487e-01
        23         5        4.952364e-02
        24         5        1.558681e+00
        25         5       -1.365524e+00
        26         5       -1.462689e-01
        27         5       -2.360375e-01
        28         5       -3.016138e-01
        29         5       -1.942169e+00
        30         5       -1.219872e+00
        31         5       -1.433665e+00
        32         5        4.583152e-01
        33         5       -1.777043e-02
        34         5        1.716152e+00
        35         5        7.029703e-01
        36         5       -4.693772e-01
        37         5       -1.409304e+00
        38         5       -8.320044e-01
        39         5       -1.580072e-01
        40         5        1.467334e+00
        41         5       -1.543556e+00
        42         5        2.386247e+00
        43         5        5.475243e-01
        44         5       -6.510230e-01
        45         5       -1.231068e+00
        46         5        5.029100e-01
        47         5        1.496006e+00
        48         5       -2.496887e-01
        49         5        7.655817e-01
        50         5       -4.904435e-01
        51         5        6.459201e-01
        52         5        3.355017e-01
        53         5        1.940583e+00
        54         5       -8.699119e-01
        55         5       -7.671360e-01
        56         5        6.413299e-01
        57         5        1.176978e+00
        58         5        9.594345e-01
        59         5       -1.514214e+00
        60         5        2.749680e-01
        61         5        1.708221e+00
        62         5       -5.280641e-01
        63         5       -3.040563e-01
        64         5        3.813906e-01
        65         5        7.416105e-01
        66         5        8.630678e-01
        67         5       -7.536794e-01
        68         5        1.846944e+00
        69         5       -2.391543e+00
        70         5       -6.176646e-01
        71         5       -5.493671e-01
        72         5       -4.960683e-01
        73         5       -1.002199e+00
        74         5       -5.541376e-01
        75         5        2.816677e-01
        76         5       -7.264059e-01
        77         5        7.953202e-02
        78         5       -4.520821e-01
        79         5        2.298826e-01
        80         5        5.395051e-01
        81         5       -2.029246e+00
        82         5        2.443703e-01
        83         5        3.099704e-02
        84         5        1.748047e-01
        85         5       -1.112740e+00
        86         5       -1.013323e+00
        87         5       -2.089149e-02
        88         5       -4.573266e-01
        89         5        2.892143e-01
        90         5        4.182208e-01
        91         5        5.080545e-01
        92         5        1.336248e+00
        93         5        4.948262e-01
        94         5        2.469606e-01
        95         5       -1.557589e+00
        96         5        9.059859e-02
        97         5       -1.801824e+00
        98         5       -1.186302e+00
        99         5       -1.712095e+00
       100         5       -9.353830e-01
;

param theta:=
    1       -1.439019e-01
    2        4.373564e-01
    3        1.889928e-01
    4        1.692586e+00
    5        3.586258e-01
;
param X_true:=
    1       -4.781204e+00
    2       -2.484841e-01
    3       -3.427718e+00
    4       -4.246953e-01
    5        3.085606e+00
    6       -1.170843e+00
    7        8.884036e-01
    8        1.787278e+00
    9        1.523634e-01
   10        5.594102e-01
   11       -1.806848e+00
   12       -1.144296e+00
   13        1.417405e+00
   14        3.542166e+00
   15       -2.353156e-01
   16        1.219476e+00
   17       -1.102482e+00
   18        2.371430e+00
   19       -7.348912e-01
   20       -7.962005e-01
   21        2.445417e+00
   22        1.750383e+00
   23       -4.616982e+00
   24        2.744358e+00
   25       -2.674066e+00
   26        1.719351e+00
   27       -8.695410e-01
   28       -2.685518e-01
   29        3.554156e-01
   30        3.270793e+00
   31       -1.226007e+00
   32        3.016939e-01
   33        2.495317e+00
   34       -6.884122e-01
   35       -1.505719e+00
   36       -4.102412e-01
   37       -1.953419e+00
   38        1.062851e+00
   39       -1.174238e+00
   40        2.535463e+00
   41       -1.546208e+00
   42        2.119037e+00
   43       -2.839821e+00
   44       -1.384903e+00
   45        3.742137e-01
   46       -2.282983e+00
   47       -1.452371e+00
   48       -2.114765e+00
   49        6.131031e-02
   50        3.457402e+00
   51        1.264574e+00
   52        4.940745e+00
   53        5.516494e-01
   54        1.309860e+00
   55        1.767258e+00
   56        4.784619e+00
   57       -1.733503e+00
   58        1.926735e+00
   59       -2.129216e-01
   60       -1.323740e+00
   61        1.392534e+00
   62        1.401942e+00
   63        6.651993e-01
   64       -2.544369e+00
   65        2.020736e+00
   66        4.284229e-01
   67        2.221652e-01
   68        3.454529e-01
   69       -3.446625e+00
   70        1.187741e+00
   71       -5.682544e-01
   72        2.095787e-01
   73        5.172225e+00
   74       -1.132380e+00
   75        1.396644e+00
   76       -1.692706e+00
   77        4.046312e-01
   78       -4.315427e-01
   79       -3.368857e+00
   80       -4.251941e-01
   81       -1.681230e+00
   82        8.458740e-01
   83        2.996499e+00
   84        6.207629e-01
   85        3.351327e+00
   86       -1.129361e+00
   87       -3.711214e-01
   88       -4.218770e-01
   89       -2.367338e-01
   90        1.285877e+00
   91        1.517855e+00
   92        1.136141e+00
   93        2.535697e+00
   94       -5.690427e-01
   95        2.808307e+00
   96        2.019476e+00
   97       -3.530065e-01
   98       -3.569158e+00
   99       -1.236536e+00
  100       -3.801546e-01
;
param X:=
    1       -1.581750e+00
    2       -4.580030e-01
    3       -3.427718e+00
    4       -2.686866e-01
    5       -2.392575e+00
    6       -1.170843e+00
    7        3.666937e-01
    8        1.787278e+00
    9       -6.620378e-01
   10        5.594102e-01
   11        5.211347e-01
   12       -1.880992e+00
   13        1.744271e-01
   14       -2.875965e-01
   15       -8.596271e-01
   16        9.862822e-01
   17       -3.928328e-01
   18        2.371430e+00
   19        8.148989e-01
   20       -1.328072e+00
   21        2.723788e-01
   22       -4.526196e-01
   23       -2.026153e+00
   24        2.744358e+00
   25       -8.069839e-01
   26        1.211947e+00
   27        2.403832e+00
   28       -4.016762e-01
   29        3.554156e-01
   30       -4.138972e-01
   31       -1.039782e-01
   32       -4.488675e-01
   33        1.695509e+00
   34       -6.884122e-01
   35       -3.960912e-01
   36       -1.153784e+00
   37       -1.953419e+00
   38        1.312940e+00
   39       -3.178180e-01
   40        4.850515e-01
   41       -1.546208e+00
   42        2.119037e+00
   43        2.228243e-01
   44       -5.872892e-01
   45       -8.639286e-01
   46       -6.784914e-01
   47       -1.452371e+00
   48       -2.114765e+00
   49        7.075605e-01
   50       -5.115688e-01
   51        1.264574e+00
   52        5.894537e-01
   53        5.516494e-01
   54        6.940887e-02
   55       -1.078577e+00
   56        4.784619e+00
   57       -1.266908e+00
   58        1.926735e+00
   59        5.537906e-01
   60       -1.323740e+00
   61        1.949512e+00
   62        1.401942e+00
   63        6.651993e-01
   64       -2.544369e+00
   65        3.429940e-01
   66       -2.882516e-01
   67       -4.424139e-01
   68        3.454529e-01
   69       -7.541536e-01
   70        6.692228e-01
   71       -1.097989e+00
   72       -4.301253e-01
   73        5.172225e+00
   74       -1.086144e+00
   75       -6.109188e-02
   76       -1.210066e+00
   77        2.173996e-02
   78       -4.315427e-01
   79       -4.654110e-01
   80       -1.005217e-01
   81       -5.122180e-01
   82        6.875021e-01
   83        2.996499e+00
   84        6.207629e-01
   85       -2.809607e-01
   86       -4.211418e-01
   87       -7.985622e-01
   88        2.444009e-01
   89        1.737159e+00
   90       -1.096779e+00
   91       -7.184328e-01
   92        1.136141e+00
   93        1.264416e+00
   94        1.016459e-01
   95        8.135726e-01
   96       -2.393936e-01
   97        4.888438e-01
   98       -2.260330e-01
   99        7.555728e-01
  100       -3.801546e-01
;
param outliervec:=
    1    1
    2    1
    3    0
    4    1
    5    1
    6    0
    7    1
    8    0
    9    1
   10    0
   11    1
   12    1
   13    1
   14    1
   15    1
   16    1
   17    1
   18    0
   19    1
   20    1
   21    1
   22    1
   23    1
   24    0
   25    1
   26    1
   27    1
   28    1
   29    0
   30    1
   31    1
   32    1
   33    1
   34    0
   35    1
   36    1
   37    0
   38    1
   39    1
   40    1
   41    0
   42    0
   43    1
   44    1
   45    1
   46    1
   47    0
   48    0
   49    1
   50    1
   51    0
   52    1
   53    0
   54    1
   55    1
   56    0
   57    1
   58    0
   59    1
   60    0
   61    1
   62    0
   63    0
   64    0
   65    1
   66    1
   67    1
   68    0
   69    1
   70    1
   71    1
   72    1
   73    0
   74    1
   75    1
   76    1
   77    1
   78    0
   79    1
   80    1
   81    1
   82    1
   83    0
   84    0
   85    1
   86    1
   87    1
   88    1
   89    1
   90    1
   91    1
   92    0
   93    1
   94    1
   95    1
   96    1
   97    1
   98    1
   99    1
  100    0
;